p cnf 757 1869
a 1 2 3 4 13 14 15 16 17 18 19 20 21 22 23 24 25 26 27 28 29 30 31 32 33 34 35 36 38 39 40 41 42 43 44 45 46 47 48 49 51 52 53 54 55 56 57 58 59 60 61 62 64 65 66 67 68 69 70 71 72 73 74 75 76 77 78 79 80 81 82 83 84 85 86 87 88 89 90 91 92 93 94 95 96 97 98 99 100 101 102 0
e 5 6 7 8 9 10 11 12 103 104 105 106 107 108 109 110 111 112 113 114 115 116 117 118 119 120 121 122 123 124 125 126 127 128 129 130 131 132 133 134 135 136 137 138 139 140 141 142 143 144 145 146 147 148 149 150 151 152 153 154 155 156 157 158 159 160 161 162 163 164 165 166 167 168 169 170 171 172 173 174 175 176 177 178 179 180 181 182 183 184 185 186 187 188 189 190 191 192 193 194 195 196 197 198 199 200 201 202 203 204 205 206 207 208 209 210 211 212 213 214 215 216 217 218 219 220 221 222 223 224 225 226 227 228 229 230 231 232 233 234 235 236 237 238 239 240 241 242 243 244 245 246 247 248 249 250 251 252 253 254 255 256 257 258 259 260 261 262 263 264 265 266 267 268 269 270 271 272 273 274 275 276 277 278 279 280 281 282 283 284 285 286 287 288 289 290 291 292 293 294 295 296 297 298 299 300 301 302 303 304 305 306 307 308 309 310 311 312 313 314 315 316 317 318 319 320 321 322 323 324 325 326 327 328 329 330 331 332 333 334 335 336 337 338 339 340 341 342 343 344 345 346 347 348 349 350 351 352 353 354 355 356 357 358 359 360 361 362 363 364 365 366 367 368 369 370 371 372 373 374 375 376 377 378 379 380 381 382 383 384 385 386 387 388 389 390 391 392 393 394 395 396 397 398 399 400 401 402 403 404 405 406 407 408 409 410 411 412 413 414 415 416 417 418 419 420 421 422 423 424 425 426 427 428 429 430 431 432 433 434 435 436 437 438 439 440 441 442 443 444 445 446 447 448 449 450 451 452 453 454 455 456 457 458 459 460 461 462 463 464 465 466 467 468 469 470 471 472 473 474 475 476 477 478 479 480 481 482 483 484 485 486 487 488 489 490 491 492 493 494 495 496 497 498 499 500 501 502 503 504 505 506 507 508 509 510 511 512 513 514 515 516 517 518 519 520 521 522 523 524 525 526 527 528 529 530 531 532 533 534 535 536 537 538 539 540 541 542 543 544 545 546 547 548 549 550 551 552 553 554 555 556 557 558 559 560 561 562 563 564 565 566 567 568 569 570 571 572 573 574 575 576 577 578 579 580 581 582 583 584 585 586 587 588 589 590 591 592 593 594 595 596 597 598 599 600 601 602 603 604 605 606 607 608 609 610 611 612 613 614 615 616 617 618 619 620 621 622 623 624 625 626 627 628 629 630 631 632 633 634 635 636 637 638 639 640 641 642 643 644 645 646 647 648 649 650 651 652 653 654 655 656 657 658 659 660 661 662 663 664 665 666 667 668 669 670 671 672 673 674 675 676 677 678 679 680 681 682 683 684 685 686 687 688 689 690 691 692 693 694 695 696 697 698 699 700 701 702 703 704 705 706 707 708 709 710 711 712 713 714 715 716 717 718 719 720 721 722 723 724 725 726 727 728 729 730 731 732 733 734 735 736 737 738 739 740 741 742 743 744 745 746 747 748 749 750 751 752 753 754 755 756 757 0
-757 0
757 -633 0
757 -690 0
757 -725 0
757 -756 0
3 2 1 -632 -755 756 0
755 -740 0
755 -754 0
-753 -752 -748 -744 -367 754 0
753 -521 0
753 -522 0
753 -523 0
753 -524 0
753 -525 0
752 -611 0
752 -751 0
752 -522 0
752 -523 0
752 -524 0
752 -525 0
-584 -750 -749 -583 -582 751 0
750 -552 0
750 -590 0
750 -424 0
750 -425 0
750 -426 0
750 -427 0
749 -542 0
749 -714 0
749 -424 0
749 -425 0
749 -426 0
749 -427 0
748 -580 0
748 -747 0
748 -522 0
748 -523 0
748 -524 0
748 -525 0
-553 -746 -548 -543 -745 747 0
746 -559 0
746 -424 0
746 -547 0
746 -425 0
746 -426 0
746 -427 0
745 -682 0
745 -542 0
745 -424 0
745 -425 0
745 -426 0
745 -427 0
744 -628 0
744 -743 0
744 -522 0
744 -523 0
744 -524 0
744 -525 0
-664 -742 -741 -663 -662 743 0
742 -670 0
742 -552 0
742 -424 0
742 -425 0
742 -426 0
742 -427 0
741 -709 0
741 -424 0
741 -547 0
741 -425 0
741 -426 0
741 -427 0
-5 -6 -7 -8 -9 -10 -11 -12 -739 740 0
739 -729 0
739 -733 0
739 -737 0
739 -738 0
-260 -259 -258 -257 -256 738 0
-260 -259 -258 -257 -736 -346 737 0
736 -317 0
736 -318 0
736 -734 0
736 -735 0
736 -319 0
-162 -161 -160 -159 -325 -287 735 0
-162 -161 -160 -159 -697 -277 734 0
-260 -259 -258 -257 -732 -315 733 0
732 -730 0
732 -278 0
732 -283 0
732 -731 0
732 -288 0
-162 -161 -160 -282 -159 -294 731 0
-162 -161 -160 -159 -277 -654 730 0
-260 -259 -258 -257 -728 -363 729 0
728 -634 0
728 -635 0
728 -726 0
728 -727 0
728 -636 0
-162 -161 -160 -159 -287 -642 727 0
-162 -161 -160 -282 -159 -692 726 0
4 2 1 -632 -724 725 0
724 -707 0
724 -723 0
-722 -721 -717 -712 -367 723 0
722 -580 0
722 -522 0
722 -523 0
722 -524 0
722 -525 0
721 -720 0
721 -521 0
721 -522 0
721 -523 0
721 -524 0
721 -525 0
-495 -494 -489 -719 -718 720 0
719 -467 0
719 -493 0
719 -424 0
719 -425 0
719 -426 0
719 -427 0
718 -677 0
718 -488 0
718 -424 0
718 -425 0
718 -426 0
718 -427 0
717 -716 0
717 -611 0
717 -522 0
717 -523 0
717 -524 0
717 -525 0
-589 -588 -587 -715 -713 716 0
715 -714 0
715 -488 0
715 -424 0
715 -425 0
715 -426 0
715 -427 0
-594 -593 -592 714 0
713 -585 0
713 -460 0
713 -424 0
713 -425 0
713 -426 0
713 -427 0
712 -711 0
712 -628 0
712 -522 0
712 -523 0
712 -524 0
712 -525 0
-669 -668 -667 -710 -708 711 0
710 -709 0
710 -493 0
710 -424 0
710 -425 0
710 -426 0
710 -427 0
-674 -673 -672 709 0
708 -665 0
708 -460 0
708 -424 0
708 -425 0
708 -426 0
708 -427 0
-5 -6 -7 -8 -9 -10 -11 -12 -706 707 0
706 -695 0
706 -700 0
706 -704 0
706 -705 0
-260 -259 -258 -257 -315 705 0
-260 -259 -258 -257 -256 -703 704 0
703 -701 0
703 -702 0
703 -224 0
703 -229 0
703 -230 0
-162 -161 -160 -159 -228 -202 702 0
-162 -161 -160 -159 -223 -649 701 0
-260 -259 -258 -257 -346 -699 700 0
699 -696 0
699 -698 0
699 -322 0
699 -323 0
699 -324 0
-162 -161 -160 -159 -223 -697 698 0
697 -327 0
697 -328 0
697 -329 0
-162 -161 -160 -159 -195 -320 696 0
-260 -259 -258 -257 -363 -694 695 0
694 -691 0
694 -693 0
694 -639 0
694 -640 0
694 -641 0
-162 -161 -160 -159 -228 -692 693 0
692 -644 0
692 -645 0
692 -646 0
-162 -161 -160 -159 -195 -637 691 0
4 3 1 -632 -689 690 0
689 -661 0
689 -688 0
-687 -686 -681 -676 -367 688 0
687 -611 0
687 -522 0
687 -523 0
687 -524 0
687 -525 0
686 -685 0
686 -580 0
686 -522 0
686 -523 0
686 -524 0
686 -525 0
-558 -557 -556 -684 -683 685 0
684 -554 0
684 -465 0
684 -424 0
684 -425 0
684 -426 0
684 -427 0
683 -682 0
683 -395 0
683 -424 0
683 -425 0
683 -426 0
683 -427 0
-563 -562 -561 682 0
681 -680 0
681 -521 0
681 -522 0
681 -523 0
681 -524 0
681 -525 0
-466 -461 -428 -679 -678 680 0
679 -496 0
679 -444 0
679 -424 0
679 -425 0
679 -426 0
679 -427 0
678 -677 0
678 -395 0
678 -424 0
678 -425 0
678 -426 0
678 -427 0
-504 -503 -502 677 0
676 -675 0
676 -628 0
676 -522 0
676 -523 0
676 -524 0
676 -525 0
-674 -673 -672 -671 -666 675 0
674 -395 0
674 -424 0
674 -425 0
674 -426 0
674 -427 0
673 -465 0
673 -542 0
673 -424 0
673 -425 0
673 -426 0
673 -427 0
672 -444 0
672 -488 0
672 -424 0
672 -425 0
672 -426 0
672 -427 0
671 -670 0
671 -444 0
671 -424 0
671 -425 0
671 -426 0
671 -427 0
-669 -668 -667 670 0
669 -488 0
669 -424 0
669 -425 0
669 -426 0
669 -427 0
668 -542 0
668 -460 0
668 -424 0
668 -425 0
668 -426 0
668 -427 0
667 -395 0
667 -493 0
667 -424 0
667 -425 0
667 -426 0
667 -427 0
666 -665 0
666 -465 0
666 -424 0
666 -425 0
666 -426 0
666 -427 0
-664 -663 -662 665 0
664 -542 0
664 -424 0
664 -425 0
664 -426 0
664 -427 0
663 -552 0
663 -488 0
663 -424 0
663 -425 0
663 -426 0
663 -427 0
662 -395 0
662 -424 0
662 -547 0
662 -425 0
662 -426 0
662 -427 0
-5 -6 -7 -8 -9 -10 -11 -12 -660 661 0
660 -648 0
660 -653 0
660 -658 0
660 -659 0
-260 -259 -258 -257 -346 659 0
-260 -259 -258 -257 -315 -657 658 0
657 -655 0
657 -656 0
657 -291 0
657 -292 0
657 -293 0
-162 -161 -160 -159 -200 -289 656 0
-162 -161 -160 -159 -130 -654 655 0
654 -296 0
654 -297 0
654 -298 0
-260 -259 -258 -257 -256 -652 653 0
652 -650 0
652 -651 0
652 -163 0
652 -196 0
652 -201 0
-162 -161 -160 -159 -179 -231 651 0
-162 -161 -160 -159 -130 -649 650 0
649 -237 0
649 -238 0
649 -239 0
-260 -259 -258 -257 -363 -647 648 0
647 -638 0
647 -643 0
647 -644 0
647 -645 0
647 -646 0
-162 -161 -160 -159 -130 646 0
-162 -161 -160 -159 -277 -200 645 0
-162 -161 -160 -159 -223 -179 644 0
-162 -161 -160 -159 -179 -642 643 0
642 -639 0
642 -640 0
642 -641 0
-162 -161 -160 -159 -223 641 0
-162 -161 -160 -159 -195 -277 640 0
-162 -161 -160 -159 -228 -130 639 0
-162 -161 -160 -159 -200 -637 638 0
637 -634 0
637 -635 0
637 -636 0
-162 -161 -160 -159 -277 636 0
-162 -161 -160 -159 -223 -287 635 0
-162 -161 -160 -282 -159 -130 634 0
4 3 2 -632 -631 633 0
632 -4 0
632 -3 0
632 -2 0
632 -1 0
631 -366 0
631 -630 0
-629 -612 -581 -526 -367 630 0
629 -628 0
629 -522 0
629 -523 0
629 -524 0
629 -525 0
-627 -622 -617 628 0
627 -623 0
627 -624 0
627 -625 0
627 -102 0
627 -626 0
627 -78 0
-12 -30 626 0
-11 -18 625 0
-15 11 624 0
-29 12 623 0
622 -618 0
622 -619 0
622 -101 0
622 -620 0
622 -621 0
622 -77 0
-14 11 621 0
-11 -16 620 0
-12 -26 619 0
-25 12 618 0
617 -613 0
617 -100 0
617 -614 0
617 -615 0
617 -616 0
617 -76 0
-12 -22 616 0
-11 -17 615 0
-13 11 614 0
-21 12 613 0
612 -595 0
612 -611 0
612 -522 0
612 -523 0
612 -524 0
612 -525 0
-610 -605 -600 611 0
610 -606 0
610 -607 0
610 -608 0
610 -609 0
610 -78 0
610 -28 0
-9 -18 609 0
-15 9 608 0
-10 -30 607 0
-29 10 606 0
605 -601 0
605 -602 0
605 -603 0
605 -604 0
605 -77 0
605 -24 0
-14 9 604 0
-9 -16 603 0
-10 -26 602 0
-25 10 601 0
600 -596 0
600 -597 0
600 -598 0
600 -599 0
600 -76 0
600 -20 0
-10 -22 599 0
-21 10 598 0
-9 -17 597 0
-13 9 596 0
-594 -593 -592 -591 -586 595 0
594 -483 0
594 -424 0
594 -425 0
594 -426 0
594 -427 0
593 -423 0
593 -424 0
593 -547 0
593 -425 0
593 -426 0
593 -427 0
592 -500 0
592 -493 0
592 -424 0
592 -425 0
592 -426 0
592 -427 0
591 -500 0
591 -590 0
591 -424 0
591 -425 0
591 -426 0
591 -427 0
-589 -588 -587 590 0
589 -460 0
589 -424 0
589 -547 0
589 -425 0
589 -426 0
589 -427 0
588 -493 0
588 -424 0
588 -425 0
588 -426 0
588 -427 0
587 -483 0
587 -488 0
587 -424 0
587 -425 0
587 -426 0
587 -427 0
586 -585 0
586 -423 0
586 -424 0
586 -425 0
586 -426 0
586 -427 0
-584 -583 -582 585 0
584 -424 0
584 -547 0
584 -425 0
584 -426 0
584 -427 0
583 -542 0
583 -483 0
583 -424 0
583 -425 0
583 -426 0
583 -427 0
582 -552 0
582 -493 0
582 -424 0
582 -425 0
582 -426 0
582 -427 0
581 -564 0
581 -580 0
581 -522 0
581 -523 0
581 -524 0
581 -525 0
-579 -574 -569 580 0
579 -575 0
579 -576 0
579 -577 0
579 -78 0
579 -578 0
579 -28 0
-8 -30 578 0
-7 -18 577 0
-15 7 576 0
-29 8 575 0
574 -570 0
574 -571 0
574 -572 0
574 -573 0
574 -77 0
574 -24 0
-8 -26 573 0
-25 8 572 0
-7 -16 571 0
-14 7 570 0
569 -565 0
569 -566 0
569 -567 0
569 -568 0
569 -76 0
569 -20 0
-7 -17 568 0
-21 8 567 0
-8 -22 566 0
-13 7 565 0
-563 -562 -561 -560 -555 564 0
563 -500 0
563 -424 0
563 -425 0
563 -426 0
563 -427 0
562 -444 0
562 -483 0
562 -424 0
562 -425 0
562 -426 0
562 -427 0
561 -423 0
561 -552 0
561 -424 0
561 -425 0
561 -426 0
561 -427 0
560 -559 0
560 -483 0
560 -424 0
560 -425 0
560 -426 0
560 -427 0
-558 -557 -556 559 0
558 -444 0
558 -424 0
558 -425 0
558 -426 0
558 -427 0
557 -465 0
557 -552 0
557 -424 0
557 -425 0
557 -426 0
557 -427 0
556 -395 0
556 -500 0
556 -424 0
556 -425 0
556 -426 0
556 -427 0
555 -554 0
555 -423 0
555 -424 0
555 -425 0
555 -426 0
555 -427 0
-553 -548 -543 554 0
553 -552 0
553 -424 0
553 -425 0
553 -426 0
553 -427 0
-551 -550 -549 552 0
551 -439 0
551 -440 0
551 -537 0
551 -538 0
551 -441 0
551 -442 0
551 -539 0
551 -540 0
551 -87 0
551 -86 0
551 -85 0
551 -69 0
551 -67 0
551 -66 0
551 -64 0
550 -434 0
550 -435 0
550 -532 0
550 -436 0
550 -533 0
550 -437 0
550 -534 0
550 -535 0
550 -84 0
550 -83 0
550 -82 0
550 -56 0
550 -54 0
550 -53 0
550 -51 0
549 -429 0
549 -430 0
549 -431 0
549 -432 0
549 -527 0
549 -528 0
549 -529 0
549 -530 0
549 -81 0
549 -80 0
549 -79 0
549 -43 0
549 -41 0
549 -40 0
549 -38 0
548 -444 0
548 -424 0
548 -547 0
548 -425 0
548 -426 0
548 -427 0
-546 -545 -544 547 0
546 -478 0
546 -537 0
546 -538 0
546 -479 0
546 -480 0
546 -539 0
546 -481 0
546 -540 0
546 -86 0
546 -85 0
546 -69 0
546 -68 0
546 -67 0
546 -66 0
546 -64 0
545 -532 0
545 -473 0
545 -474 0
545 -533 0
545 -475 0
545 -476 0
545 -534 0
545 -535 0
545 -83 0
545 -82 0
545 -56 0
545 -55 0
545 -54 0
545 -53 0
545 -51 0
544 -468 0
544 -469 0
544 -470 0
544 -471 0
544 -527 0
544 -528 0
544 -529 0
544 -530 0
544 -80 0
544 -79 0
544 -43 0
544 -42 0
544 -41 0
544 -40 0
544 -38 0
543 -542 0
543 -500 0
543 -424 0
543 -425 0
543 -426 0
543 -427 0
-541 -536 -531 542 0
541 -387 0
541 -388 0
541 -389 0
541 -537 0
541 -538 0
541 -539 0
541 -393 0
541 -540 0
541 -96 0
541 -86 0
541 -85 0
541 -69 0
541 -68 0
541 -66 0
541 -64 0
6 -70 540 0
-6 -74 539 0
-5 -36 538 0
-33 5 537 0
536 -532 0
536 -533 0
536 -380 0
536 -381 0
536 -382 0
536 -383 0
536 -534 0
536 -535 0
536 -95 0
536 -83 0
536 -82 0
536 -56 0
536 -55 0
536 -53 0
536 -51 0
6 -57 535 0
-6 -61 534 0
-5 -34 533 0
-32 5 532 0
531 -368 0
531 -371 0
531 -372 0
531 -527 0
531 -374 0
531 -528 0
531 -529 0
531 -530 0
531 -94 0
531 -80 0
531 -79 0
531 -43 0
531 -42 0
531 -40 0
531 -38 0
6 -44 530 0
-6 -48 529 0
-5 -35 528 0
-31 5 527 0
526 -505 0
526 -521 0
526 -522 0
526 -523 0
526 -524 0
526 -525 0
-14 13 525 0
-17 16 524 0
-15 14 523 0
-16 18 522 0
-520 -515 -510 521 0
520 -516 0
520 -517 0
520 -518 0
520 -519 0
520 -28 0
520 -27 0
-6 -30 519 0
-29 6 518 0
-5 -18 517 0
-15 5 516 0
515 -511 0
515 -512 0
515 -513 0
515 -514 0
515 -24 0
515 -23 0
-5 -16 514 0
-6 -26 513 0
-25 6 512 0
-14 5 511 0
510 -506 0
510 -507 0
510 -508 0
510 -509 0
510 -20 0
510 -19 0
-6 -22 509 0
-21 6 508 0
-5 -17 507 0
-13 5 506 0
-504 -503 -502 -501 -484 505 0
504 -423 0
504 -424 0
504 -425 0
504 -426 0
504 -427 0
503 -500 0
503 -460 0
503 -424 0
503 -425 0
503 -426 0
503 -427 0
502 -465 0
502 -483 0
502 -424 0
502 -425 0
502 -426 0
502 -427 0
501 -496 0
501 -500 0
501 -424 0
501 -425 0
501 -426 0
501 -427 0
-499 -498 -497 500 0
499 -439 0
499 -440 0
499 -414 0
499 -418 0
499 -441 0
499 -442 0
499 -419 0
499 -420 0
499 -99 0
499 -90 0
499 -86 0
499 -85 0
499 -69 0
499 -68 0
499 -67 0
498 -434 0
498 -435 0
498 -436 0
498 -406 0
498 -407 0
498 -408 0
498 -437 0
498 -98 0
498 -89 0
498 -412 0
498 -83 0
498 -82 0
498 -56 0
498 -55 0
498 -54 0
497 -429 0
497 -430 0
497 -431 0
497 -432 0
497 -398 0
497 -399 0
497 -400 0
497 -401 0
497 -97 0
497 -88 0
497 -80 0
497 -79 0
497 -43 0
497 -42 0
497 -41 0
-495 -494 -489 496 0
495 -460 0
495 -424 0
495 -425 0
495 -426 0
495 -427 0
494 -465 0
494 -493 0
494 -424 0
494 -425 0
494 -426 0
494 -427 0
-492 -491 -490 493 0
492 -455 0
492 -478 0
492 -479 0
492 -456 0
492 -457 0
492 -458 0
492 -480 0
492 -481 0
492 -90 0
492 -87 0
492 -86 0
492 -85 0
492 -69 0
492 -67 0
492 -66 0
491 -450 0
491 -473 0
491 -451 0
491 -474 0
491 -452 0
491 -453 0
491 -475 0
491 -476 0
491 -89 0
491 -84 0
491 -83 0
491 -82 0
491 -56 0
491 -54 0
491 -53 0
490 -468 0
490 -469 0
490 -470 0
490 -445 0
490 -471 0
490 -446 0
490 -447 0
490 -88 0
490 -81 0
490 -80 0
490 -79 0
490 -43 0
490 -41 0
490 -40 0
490 -448 0
489 -423 0
489 -488 0
489 -424 0
489 -425 0
489 -426 0
489 -427 0
-487 -486 -485 488 0
487 -387 0
487 -388 0
487 -389 0
487 -455 0
487 -456 0
487 -457 0
487 -458 0
487 -393 0
487 -96 0
487 -90 0
487 -86 0
487 -85 0
487 -69 0
487 -68 0
487 -66 0
486 -450 0
486 -451 0
486 -452 0
486 -453 0
486 -380 0
486 -381 0
486 -382 0
486 -383 0
486 -95 0
486 -89 0
486 -83 0
486 -82 0
486 -56 0
486 -55 0
486 -53 0
485 -368 0
485 -445 0
485 -371 0
485 -372 0
485 -446 0
485 -374 0
485 -447 0
485 -94 0
485 -88 0
485 -80 0
485 -79 0
485 -43 0
485 -42 0
485 -40 0
485 -448 0
484 -467 0
484 -483 0
484 -424 0
484 -425 0
484 -426 0
484 -427 0
-482 -477 -472 483 0
482 -414 0
482 -478 0
482 -418 0
482 -479 0
482 -480 0
482 -419 0
482 -420 0
482 -481 0
482 -99 0
482 -93 0
482 -90 0
482 -86 0
482 -85 0
482 -68 0
482 -67 0
-10 -75 481 0
-9 -73 480 0
10 -72 479 0
9 -71 478 0
477 -473 0
477 -474 0
477 -475 0
477 -406 0
477 -407 0
477 -408 0
477 -476 0
477 -98 0
477 -92 0
477 -89 0
477 -412 0
477 -83 0
477 -82 0
477 -55 0
477 -54 0
-10 -62 476 0
-9 -60 475 0
10 -59 474 0
9 -58 473 0
472 -468 0
472 -469 0
472 -470 0
472 -471 0
472 -398 0
472 -399 0
472 -400 0
472 -401 0
472 -97 0
472 -91 0
472 -88 0
472 -80 0
472 -79 0
472 -42 0
472 -41 0
-9 -47 471 0
-10 -49 470 0
10 -46 469 0
9 -45 468 0
-466 -461 -428 467 0
466 -465 0
466 -424 0
466 -425 0
466 -426 0
466 -427 0
-464 -463 -462 465 0
464 -386 0
464 -415 0
464 -416 0
464 -417 0
464 -390 0
464 -391 0
464 -392 0
464 -421 0
464 -90 0
464 -85 0
464 -69 0
464 -68 0
464 -67 0
464 -66 0
464 -65 0
463 -377 0
463 -405 0
463 -378 0
463 -379 0
463 -409 0
463 -89 0
463 -384 0
463 -410 0
463 -411 0
463 -82 0
463 -56 0
463 -55 0
463 -54 0
463 -53 0
463 -52 0
462 -396 0
462 -397 0
462 -369 0
462 -370 0
462 -373 0
462 -402 0
462 -403 0
462 -88 0
462 -79 0
462 -43 0
462 -42 0
462 -41 0
462 -40 0
462 -375 0
462 -39 0
461 -444 0
461 -460 0
461 -424 0
461 -425 0
461 -426 0
461 -427 0
-459 -454 -449 460 0
459 -415 0
459 -416 0
459 -417 0
459 -455 0
459 -456 0
459 -457 0
459 -458 0
459 -421 0
459 -93 0
459 -90 0
459 -85 0
459 -68 0
459 -67 0
459 -66 0
459 -65 0
-8 -74 458 0
-7 -36 457 0
-33 7 456 0
8 -70 455 0
454 -405 0
454 -450 0
454 -451 0
454 -452 0
454 -453 0
454 -409 0
454 -92 0
454 -89 0
454 -410 0
454 -411 0
454 -82 0
454 -55 0
454 -54 0
454 -53 0
454 -52 0
8 -57 453 0
-7 -34 452 0
-8 -61 451 0
-32 7 450 0
449 -396 0
449 -397 0
449 -445 0
449 -446 0
449 -447 0
449 -402 0
449 -403 0
449 -91 0
449 -88 0
449 -79 0
449 -42 0
449 -41 0
449 -40 0
449 -448 0
449 -39 0
-7 -35 448 0
-8 -48 447 0
-31 7 446 0
8 -44 445 0
-443 -438 -433 444 0
443 -386 0
443 -439 0
443 -440 0
443 -390 0
443 -441 0
443 -442 0
443 -391 0
443 -392 0
443 -93 0
443 -90 0
443 -86 0
443 -85 0
443 -68 0
443 -67 0
443 -66 0
-7 -73 442 0
-8 -75 441 0
8 -72 440 0
7 -71 439 0
438 -377 0
438 -434 0
438 -435 0
438 -436 0
438 -378 0
438 -379 0
438 -437 0
438 -92 0
438 -89 0
438 -384 0
438 -83 0
438 -82 0
438 -55 0
438 -54 0
438 -53 0
-8 -62 437 0
-7 -60 436 0
8 -59 435 0
7 -58 434 0
433 -429 0
433 -430 0
433 -431 0
433 -369 0
433 -432 0
433 -370 0
433 -373 0
433 -91 0
433 -88 0
433 -80 0
433 -79 0
433 -42 0
433 -41 0
433 -40 0
433 -375 0
-7 -47 432 0
-8 -49 431 0
8 -46 430 0
7 -45 429 0
428 -395 0
428 -423 0
428 -424 0
428 -425 0
428 -426 0
428 -427 0
-32 31 427 0
-33 32 426 0
-35 34 425 0
-34 36 424 0
-422 -413 -404 423 0
422 -414 0
422 -415 0
422 -416 0
422 -417 0
422 -418 0
422 -419 0
422 -420 0
422 -421 0
422 -99 0
422 -90 0
422 -85 0
422 -69 0
422 -68 0
422 -67 0
422 -65 0
-6 -75 421 0
-12 -74 420 0
-11 -36 419 0
-33 11 418 0
-5 -73 417 0
6 -72 416 0
5 -71 415 0
12 -70 414 0
413 -405 0
413 -406 0
413 -407 0
413 -408 0
413 -409 0
413 -98 0
413 -89 0
413 -410 0
413 -411 0
413 -412 0
413 -82 0
413 -56 0
413 -55 0
413 -54 0
413 -52 0
-12 -61 412 0
-5 -60 411 0
-6 -62 410 0
6 -59 409 0
-11 -34 408 0
-32 11 407 0
12 -57 406 0
5 -58 405 0
404 -396 0
404 -397 0
404 -398 0
404 -399 0
404 -400 0
404 -401 0
404 -402 0
404 -403 0
404 -97 0
404 -88 0
404 -79 0
404 -43 0
404 -42 0
404 -41 0
404 -39 0
-5 -47 403 0
-6 -49 402 0
12 -44 401 0
-12 -48 400 0
-31 11 399 0
-11 -35 398 0
6 -46 397 0
5 -45 396 0
-394 -385 -376 395 0
394 -386 0
394 -387 0
394 -388 0
394 -389 0
394 -390 0
394 -391 0
394 -392 0
394 -393 0
394 -96 0
394 -90 0
394 -87 0
394 -86 0
394 -85 0
394 -69 0
394 -66 0
-12 -75 393 0
-9 -36 392 0
-10 -74 391 0
-33 9 390 0
-11 -73 389 0
12 -72 388 0
11 -71 387 0
10 -70 386 0
385 -377 0
385 -378 0
385 -379 0
385 -380 0
385 -381 0
385 -382 0
385 -383 0
385 -95 0
385 -89 0
385 -384 0
385 -84 0
385 -83 0
385 -82 0
385 -56 0
385 -53 0
-10 -61 384 0
12 -59 383 0
-12 -62 382 0
-11 -60 381 0
11 -58 380 0
10 -57 379 0
-9 -34 378 0
-32 9 377 0
376 -368 0
376 -369 0
376 -370 0
376 -371 0
376 -372 0
376 -373 0
376 -374 0
376 -94 0
376 -88 0
376 -81 0
376 -80 0
376 -79 0
376 -43 0
376 -40 0
376 -375 0
-9 -35 375 0
-12 -49 374 0
10 -44 373 0
11 -45 372 0
-11 -47 371 0
-31 9 370 0
-10 -48 369 0
12 -46 368 0
367 10 0
367 11 0
367 12 0
367 8 0
367 6 0
367 5 0
367 7 0
367 9 0
-5 -6 -7 -8 -9 -10 -11 -12 -365 366 0
365 -261 0
365 -316 0
365 -347 0
365 -364 0
-260 -259 -258 -257 -363 364 0
363 -352 0
363 -357 0
363 -362 0
78 -361 102 -360 -359 -358 362 0
361 30 0
361 12 0
360 11 0
360 18 0
359 15 0
359 -11 0
358 29 0
358 -12 0
77 -356 -355 101 -354 -353 357 0
356 14 0
356 -11 0
355 11 0
355 16 0
354 26 0
354 12 0
353 25 0
353 -12 0
76 -351 -350 -349 100 -348 352 0
351 12 0
351 22 0
350 11 0
350 17 0
349 13 0
349 -11 0
348 21 0
348 -12 0
-260 -259 -258 -257 -346 -330 347 0
346 -335 0
346 -340 0
346 -345 0
28 78 -344 -343 -342 -341 345 0
344 15 0
344 -9 0
343 18 0
343 9 0
342 30 0
342 10 0
341 29 0
341 -10 0
24 77 -339 -338 -337 -336 340 0
339 14 0
339 -9 0
338 16 0
338 9 0
337 26 0
337 10 0
336 25 0
336 -10 0
20 76 -334 -333 -332 -331 335 0
334 10 0
334 22 0
333 21 0
333 -10 0
332 17 0
332 9 0
331 13 0
331 -9 0
330 -321 0
330 -326 0
330 -327 0
330 -328 0
330 -329 0
-162 -161 -160 -159 -218 329 0
-162 -161 -160 -282 -159 -158 328 0
-162 -161 -160 -159 -228 -235 327 0
-162 -161 -160 -159 -325 -235 326 0
325 -322 0
325 -323 0
325 -324 0
-162 -161 -160 -282 -159 -195 324 0
-162 -161 -160 -159 -228 323 0
-162 -161 -160 -159 -223 -218 322 0
-162 -161 -160 -159 -158 -320 321 0
320 -317 0
320 -318 0
320 -319 0
-162 -161 -160 -282 -159 319 0
-162 -161 -160 -159 -218 -277 318 0
-162 -161 -160 -159 -228 -287 317 0
-260 -259 -258 -257 -315 -299 316 0
315 -304 0
315 -309 0
315 -314 0
28 -313 78 -312 -311 -310 314 0
313 30 0
313 8 0
312 18 0
312 7 0
311 15 0
311 -7 0
310 29 0
310 -8 0
24 77 -308 -307 -306 -305 309 0
308 26 0
308 8 0
307 25 0
307 -8 0
306 16 0
306 7 0
305 14 0
305 -7 0
20 76 -303 -302 -301 -300 304 0
303 17 0
303 7 0
302 21 0
302 -8 0
301 8 0
301 22 0
300 13 0
300 -7 0
299 -290 0
299 -295 0
299 -296 0
299 -297 0
299 -298 0
-162 -161 -160 -159 -235 298 0
-162 -161 -160 -159 -218 -179 297 0
-162 -161 -160 -159 -287 -158 296 0
-162 -161 -160 -159 -218 -294 295 0
294 -291 0
294 -292 0
294 -293 0
-162 -161 -160 -159 -179 293 0
-162 -161 -160 -159 -287 -200 292 0
-162 -161 -160 -159 -235 -130 291 0
-162 -161 -160 -159 -158 -289 290 0
289 -278 0
289 -283 0
289 -288 0
-162 -161 -160 -159 -287 288 0
287 -284 0
287 -285 0
287 -286 0
69 67 66 64 86 85 87 -275 -274 -177 -176 -273 -272 -175 -174 286 0
54 53 56 51 84 83 82 -270 -269 -172 -268 -171 -267 -170 -169 285 0
38 81 43 40 79 80 41 -265 -264 -263 -262 -167 -166 -165 -164 284 0
-162 -161 -160 -282 -159 -179 283 0
282 -279 0
282 -280 0
282 -281 0
69 68 67 66 64 86 85 -275 -216 -274 -215 -214 -273 -272 -213 281 0
54 53 56 55 51 83 82 -270 -269 -211 -210 -268 -209 -208 -267 280 0
38 43 40 79 80 42 41 -265 -264 -263 -262 -206 -205 -204 -203 279 0
-162 -161 -160 -159 -235 -277 278 0
277 -266 0
277 -271 0
277 -276 0
69 68 66 64 86 85 96 -275 -128 -274 -273 -272 -124 -123 -122 276 0
275 70 0
275 -6 0
274 74 0
274 6 0
273 36 0
273 5 0
272 33 0
272 -5 0
53 56 55 51 83 82 95 -270 -269 -118 -117 -116 -115 -268 -267 271 0
270 57 0
270 -6 0
269 61 0
269 6 0
268 34 0
268 5 0
267 32 0
267 -5 0
38 43 40 79 80 42 94 -265 -264 -263 -109 -262 -107 -106 -103 266 0
265 44 0
265 -6 0
264 48 0
264 6 0
263 35 0
263 5 0
262 31 0
262 -5 0
-260 -259 -258 -257 -256 -240 261 0
260 14 0
260 -13 0
259 17 0
259 -16 0
258 15 0
258 -14 0
257 16 0
257 -18 0
256 -245 0
256 -250 0
256 -255 0
28 27 -254 -253 -252 -251 255 0
254 30 0
254 6 0
253 29 0
253 -6 0
252 18 0
252 5 0
251 15 0
251 -5 0
24 23 -249 -248 -247 -246 250 0
249 16 0
249 5 0
248 26 0
248 6 0
247 25 0
247 -6 0
246 14 0
246 -5 0
20 19 -244 -243 -242 -241 245 0
244 22 0
244 6 0
243 21 0
243 -6 0
242 17 0
242 5 0
241 13 0
241 -5 0
240 -219 0
240 -236 0
240 -237 0
240 -238 0
240 -239 0
-162 -161 -160 -159 -158 239 0
-162 -161 -160 -159 -195 -235 238 0
-162 -161 -160 -159 -218 -200 237 0
-162 -161 -160 -159 -235 -231 236 0
235 -232 0
235 -233 0
235 -234 0
69 68 67 86 85 90 99 -155 -154 -177 -176 -153 -149 -175 -174 234 0
54 56 55 83 82 -147 98 89 -172 -143 -142 -141 -171 -170 -169 233 0
43 79 80 42 41 88 97 -136 -135 -134 -133 -167 -166 -165 -164 232 0
231 -224 0
231 -229 0
231 -230 0
-162 -161 -160 -159 -195 230 0
-162 -161 -160 -159 -228 -200 229 0
228 -225 0
228 -226 0
228 -227 0
69 67 66 86 85 90 87 -216 -215 -193 -192 -191 -214 -213 -190 227 0
54 53 56 84 83 82 89 -211 -210 -188 -187 -209 -186 -208 -185 226 0
-183 81 43 40 79 80 41 88 -182 -181 -206 -180 -205 -204 -203 225 0
-162 -161 -160 -159 -223 -158 224 0
223 -220 0
223 -221 0
223 -222 0
69 68 66 86 85 90 96 -128 -193 -192 -191 -190 -124 -123 -122 222 0
53 56 55 83 82 89 95 -118 -117 -116 -115 -188 -187 -186 -185 221 0
-183 43 40 79 80 42 88 94 -182 -109 -181 -107 -106 -180 -103 220 0
-162 -161 -160 -159 -218 -202 219 0
218 -207 0
218 -212 0
218 -217 0
68 67 86 85 90 99 93 -216 -155 -154 -215 -214 -153 -213 -149 217 0
216 75 0
216 10 0
215 73 0
215 9 0
214 72 0
214 -10 0
213 71 0
213 -9 0
54 55 83 82 -147 98 89 92 -211 -143 -142 -141 -210 -209 -208 212 0
211 62 0
211 10 0
210 60 0
210 9 0
209 59 0
209 -10 0
208 58 0
208 -9 0
79 80 42 41 91 88 97 -136 -135 -134 -133 -206 -205 -204 -203 207 0
206 47 0
206 9 0
205 49 0
205 10 0
204 46 0
204 -10 0
203 45 0
203 -9 0
202 -163 0
202 -196 0
202 -201 0
-162 -161 -160 -159 -200 201 0
200 -197 0
200 -198 0
200 -199 0
69 68 67 66 65 85 90 -156 -127 -126 -125 -152 -151 -150 -121 199 0
54 53 56 55 52 82 -146 -145 -119 89 -144 -114 -113 -140 -112 198 0
39 -110 43 40 79 42 41 88 -138 -137 -108 -105 -104 -132 -131 197 0
-162 -161 -160 -159 -195 -179 196 0
195 -184 0
195 -189 0
195 -194 0
68 67 66 65 85 90 93 -156 -193 -192 -191 -190 -152 -151 -150 194 0
193 74 0
193 8 0
192 36 0
192 7 0
191 33 0
191 -7 0
190 70 0
190 -8 0
54 53 55 52 82 -146 -145 89 92 -144 -188 -187 -186 -185 -140 189 0
188 57 0
188 -8 0
187 34 0
187 7 0
186 61 0
186 8 0
185 32 0
185 -7 0
39 -183 40 79 42 41 91 88 -138 -137 -182 -181 -180 -132 -131 184 0
183 35 0
183 7 0
182 48 0
182 8 0
181 31 0
181 -7 0
180 44 0
180 -8 0
179 -168 0
179 -173 0
179 -178 0
68 67 66 86 85 90 93 -127 -126 -177 -176 -125 -175 -174 -121 178 0
177 75 0
177 8 0
176 73 0
176 7 0
175 72 0
175 -8 0
174 71 0
174 -7 0
54 53 55 83 82 -119 89 92 -172 -114 -113 -171 -170 -169 -112 173 0
172 62 0
172 8 0
171 60 0
171 7 0
170 59 0
170 -8 0
169 58 0
169 -7 0
-110 40 79 80 42 41 91 88 -108 -105 -167 -104 -166 -165 -164 168 0
167 47 0
167 7 0
166 49 0
166 8 0
165 46 0
165 -8 0
164 45 0
164 -7 0
-162 -161 -160 -159 -158 -130 163 0
162 32 0
162 -31 0
161 33 0
161 -32 0
160 35 0
160 -34 0
159 34 0
159 -36 0
158 -139 0
158 -148 0
158 -157 0
69 68 67 65 85 90 99 -156 -155 -154 -153 -152 -151 -150 -149 157 0
156 75 0
156 6 0
155 74 0
155 12 0
154 36 0
154 11 0
153 33 0
153 -11 0
152 73 0
152 5 0
151 72 0
151 -6 0
150 71 0
150 -5 0
149 70 0
149 -12 0
54 56 55 52 82 -147 -146 -145 98 89 -144 -143 -142 -141 -140 148 0
147 61 0
147 12 0
146 60 0
146 5 0
145 62 0
145 6 0
144 59 0
144 -6 0
143 34 0
143 11 0
142 32 0
142 -11 0
141 57 0
141 -12 0
140 58 0
140 -5 0
39 43 79 42 41 88 97 -138 -137 -136 -135 -134 -133 -132 -131 139 0
138 47 0
138 5 0
137 49 0
137 6 0
136 44 0
136 -12 0
135 48 0
135 12 0
134 31 0
134 -11 0
133 35 0
133 11 0
132 46 0
132 -6 0
131 45 0
131 -5 0
130 -111 0
130 -120 0
130 -129 0
69 66 86 85 90 87 96 -128 -127 -126 -125 -124 -123 -122 -121 129 0
128 75 0
128 12 0
127 36 0
127 9 0
126 74 0
126 10 0
125 33 0
125 -9 0
124 73 0
124 11 0
123 72 0
123 -12 0
122 71 0
122 -11 0
121 70 0
121 -10 0
53 56 84 83 82 -119 89 95 -118 -117 -116 -115 -114 -113 -112 120 0
119 61 0
119 10 0
118 59 0
118 -12 0
117 62 0
117 12 0
116 60 0
116 11 0
115 58 0
115 -11 0
114 57 0
114 -10 0
113 34 0
113 9 0
112 32 0
112 -9 0
-110 81 43 40 79 80 88 94 -109 -108 -107 -106 -105 -104 -103 111 0
110 35 0
110 9 0
109 49 0
109 12 0
108 44 0
108 -10 0
107 45 0
107 -11 0
106 47 0
106 11 0
105 31 0
105 -9 0
104 48 0
104 10 0
103 46 0
103 -12 0
